5	10
7 1	3 1	6 1	0 1	5 1	2 1	1 1	4 1	8 1	9 1
8 1	3 1	5 1	7 1	4 1	9 1	2 1	0 1	1 1	6 1
2 1	6 1	8 1	7 1	9 1	0 1	5 1	1 1	4 1	3 1
7 1	4 1	6 1	0 1	5 1	1 1	3 1	2 1	8 1	9 1
0 1	2 1	6 1	4 1	9 1	7 1	3 1	8 1	1 1	5 1
